(set-info :smt-lib-version 2.6)
(set-logic QF_S)
(set-info :source |
Generated by: Hung-En Wang, Tzung-Lin Tsai, Chun-Han Lin, Fang Yu, and Jie-Hong R. Jiang
Generated on: 2019-02-28
Generator: Stranger
Application: Security analysis of string manipulating web applications
Target solver: CVC4, Norn, Z3-str2
Publication:
Hung-En Wang, Tzung-Lin Tsai, Chun-Han Lin, Fang Yu, Jie-Hong R. Jiang:
String Analysis via Automata Manipulation with Logic Circuit Representation. CAV (1) 2016: 241-260.
|)
(set-info :license "https://creativecommons.org/licenses/by/4.0/")
(set-info :category "industrial")
(set-info :status unknown)

(declare-fun sigmaStar_0 () String)
(declare-fun sigmaStar_1 () String)
(declare-fun literal_6 () String)
(declare-fun x_7 () String)
(declare-fun literal_8 () String)
(declare-fun x_9 () String)
(declare-fun literal_10 () String)
(declare-fun x_11 () String)
(declare-fun literal_12 () String)
(declare-fun x_13 () String)
(declare-fun literal_14 () String)
(declare-fun x_15 () String)
(assert (= literal_6 "\u{3c}\u{66}\u{6f}\u{72}\u{6d}\u{20}\u{6d}\u{65}\u{74}\u{68}\u{6f}\u{64}\u{3d}\u{22}\u{70}\u{6f}\u{73}\u{74}\u{22}\u{20}\u{65}\u{6e}\u{63}\u{74}\u{79}\u{70}\u{65}\u{3d}\u{22}\u{6d}\u{75}\u{6c}\u{74}\u{69}\u{70}\u{61}\u{72}\u{74}\u{2f}\u{66}\u{6f}\u{72}\u{6d}\u{2d}\u{64}\u{61}\u{74}\u{61}\u{22}\u{20}\u{61}\u{63}\u{74}\u{69}\u{6f}\u{6e}\u{3d}\u{22}\u{75}\u{70}\u{6c}\u{6f}\u{61}\u{64}\u{75}\u{73}\u{65}\u{72}\u{2e}\u{70}\u{68}\u{70}\u{22}\u{3e}\u{66}\u{69}\u{6c}\u{65}\u{26}\u{6e}\u{62}\u{73}\u{70}\u{3b}\u{3c}\u{69}\u{6e}\u{70}\u{75}\u{74}\u{20}\u{74}\u{79}\u{70}\u{65}\u{3d}\u{22}\u{68}\u{69}\u{64}\u{64}\u{65}\u{6e}\u{22}\u{20}\u{6e}\u{61}\u{6d}\u{65}\u{3d}\u{22}\u{4d}\u{41}\u{58}\u{5f}\u{46}\u{49}\u{4c}\u{45}\u{5f}\u{53}\u{49}\u{5a}\u{45}\u{22}\u{20}\u{76}\u{61}\u{6c}\u{75}\u{65}\u{3d}\u{22}"))
(assert (= x_7 (str.++ literal_6 sigmaStar_0)))
(assert (= literal_8 "\u{22}\u{3e}"))
(assert (= x_9 (str.++ x_7 literal_8)))
(assert (= literal_10 "\u{3c}\u{69}\u{6e}\u{70}\u{75}\u{74}\u{20}\u{74}\u{79}\u{70}\u{65}\u{3d}\u{22}\u{68}\u{69}\u{64}\u{64}\u{65}\u{6e}\u{22}\u{20}\u{6e}\u{61}\u{6d}\u{65}\u{3d}\u{22}\u{73}\u{65}\u{73}\u{73}\u{6b}\u{65}\u{79}\u{22}\u{20}\u{76}\u{61}\u{6c}\u{75}\u{65}\u{3d}\u{22}"))
(assert (= x_11 (str.++ x_9 literal_10)))
(assert (= literal_12 "\u{22}\u{3e}"))
(assert (= x_13 (str.++ x_11 literal_12)))
(assert (= literal_14 "\u{3c}\u{69}\u{6e}\u{70}\u{75}\u{74}\u{20}\u{74}\u{79}\u{70}\u{65}\u{3d}\u{22}\u{66}\u{69}\u{6c}\u{65}\u{22}\u{20}\u{6e}\u{61}\u{6d}\u{65}\u{3d}\u{22}\u{75}\u{73}\u{65}\u{72}\u{66}\u{69}\u{6c}\u{65}\u{22}\u{20}\u{73}\u{69}\u{7a}\u{65}\u{3d}\u{22}\u{33}\u{30}\u{22}\u{3e}"))
(assert (= x_15 (str.++ x_13 literal_14)))
(assert (str.in_re x_15 (re.++ (re.* re.allchar) (re.++ (str.to_re "\u{5c}\u{3c}\u{53}\u{43}\u{52}\u{49}\u{50}\u{54}") (re.* re.allchar)))))
(check-sat)
(exit)
